num_stars = 3;
dim = 14;
sectors = [|
1, 1, 1, 1, 2, 3, 3, 3, 3, 3, 3, 3, 3, 4|
1, 1, 1, 1, 2, 3, 5, 3, 4, 4, 4, 4, 4, 4|
1, 1, 1, 2, 2, 3, 5, 5, 5, 4, 4, 4, 4, 4|
1, 1, 1, 1, 2, 5, 5, 5, 5, 4, 4, 4, 4, 4|
1, 1, 1, 1, 2, 5, 5, 5, 5, 5, 6, 6, 6, 4|
1, 7, 7, 7, 7, 5, 5, 5, 6, 6, 6, 6, 6, 6|
7, 7, 7, 7, 7, 7, 5, 8, 8, 6, 6, 6, 9, 6|
10, 7, 7, 7, 7, 7, 11, 8, 8, 8, 8, 8, 9, 9|
10, 7, 7, 7, 7, 11, 11, 8, 12, 8, 8, 9, 9, 9|
10, 7, 7, 7, 11, 11, 12, 8, 12, 8, 8, 8, 9, 9|
10, 10, 7, 7, 11, 12, 12, 12, 12, 12, 8, 8, 9, 9|
10, 10, 10, 10, 11, 11, 12, 13, 8, 8, 8, 8, 9, 9|
14, 10, 14, 14, 11, 11, 13, 13, 8, 8, 13, 9, 9, 9|
14, 14, 14, 14, 14, 14, 13, 13, 13, 13, 13, 9, 9, 9|
];